
  32   50
   7    1   13   14    9   24   13   13   11    5   22    6   12   10   14   13   15    5    9    6    9    9   10   15   12   13    8   13    8    4   14    7    0    0    0    0    0    0    0    0    0    0    0    0    0    0    0    0    0    0

   0   0   0   0   0   0   0   0   0   0   0   0   0   0   0   0   0   0   0   0   0   0   0   0   0   0   0   0   0   0   0   0   0   0   0   0   0   0   0   0   0   0   0   0   0   0   0   0   0   0   0  11 2 3 4 5 6 8 9 10 13 14 15 
   4   0   0   0   0   5   7   6   0   0   0   0   0   9   0   8   3   0   0   0   0   0   0   0   0   0   1   0   4   0   0   0   0   0   0   0   0   0   0   0   0   0   0   0   0   0   0   0   0   0   0   5 31 29 12 11 7 
   1   5   0   0   0   0   0   0   0   0   0   0   0   0   0   0   0   0   0   0   0   7   8   0   0   0   0   5   0   0   0   0   6   0   0   0   0   0   0   0   0   0   0   0   0   0   0   0   0   0   0   4 30 20 16 7 
   5   0   0   9   2   0   6   0   0   8   0   0   0   0   0   0   0   8   0   0   0   3   0   0   0   0   0   0   0   0   0   0   0   0   0   0   0   0   0   0   0   0   0   0   0   0   0   0   0   0   0   8 31 30 26 25 20 19 18 17 
   3   0   0   0   0   0   2   0   0   0   0   0   0   1   0   0   0   0   0   0   0   0   0   0   0   0   4   0   2   0   0   0   0   0   0   0   0   0   0   0   0   0   0   0   0   0   0   0   0   0   0   8 29 28 27 25 24 20 19 18 
  10   0   0   0   0   0   0   0   0   0   0   8   0   0   0   0   0   0   0   0   0   0   0   0   0   0  10   0   0   0   4   8   0   0   0   0   0   0   0   0   0   0   0   0   0   0   0   0   0   0   0   6 31 29 26 25 20 16 
   3   0   0   4   0   0   0   0   0   0   0   0   0   0   0   0   0  10   0   0   0   0   0   0   0   0   0   1   0   0   0   0   0   0   0   0   0   0   0   0   0   0   0   0   0   0   0   0   0   0   0   6 26 25 24 19 18 17 
   3   0   0   0   0   0   0  10   5   0   0  10   0   0   0   7   0   0   0   6   0   0   0   0  10   0   0   0   0   0   0   0   0   0   0   0   0   0   0   0   0   0   0   0   0   0   0   0   0   0   0   7 30 27 25 24 23 22 19 
   1   0   0   0   0   0   7   0   1   0   0   0   0   1   0   1   0   0   2   6   0   1   0  10   0   0   0   0   0   0   0   0   0   0   0   0   0   0   0   0   0   0   0   0   0   0   0   0   0   0   0   4 27 25 23 16 
   2   0   0   0   0   0   0   0   0   0   0   0   0   4   0   0   7   0   0   0   0   0   0   0   0   0   0   0   0   0   0   0   0   0   0   0   0   0   0   0   0   0   0   0   0   0   0   0   0   0   0   7 29 27 26 25 23 22 21 
   6   0   0   0   0   0   0   4   0   0   0   0   0   0   0   0   0   0   0   0   0   0   0   0   0   0   0   0   0   0   0   0   0   0   0   0   0   0   0   0   0   0   0   0   0   0   0   0   0   0   0   3 25 24 17 
   1   0   0   0   0   0  10   0   0   0   0   0   0   0   0   0   0   0   0   0   0   0   0   8   0   0   0   3   0   0   0   0   7   0   0   0   0   0   0   0   0   0   0   0   0   0   0   0   0   0   0   5 27 24 23 22 21 
   7   0   1   0   0   0   0   0   0   0   5  10   0   0   0   0   7   0   0   0   0   0   0   0   0  10   0   0   0   0   0   0   0   0   0   0   0   0   0   0   0   0   0   0   0   0   0   0   0   0   0   5 26 24 23 22 21 
   6   0   0   0   0   0  10   0   0   0   0   0   0   0   0   0   0   0   0   0   0   0   0   0   0   0   0   0  10   0   0   0   0   0   0   0   0   0   0   0   0   0   0   0   0   0   0   0   0   0   0   2 24 17 
   1   0   0   7   0   0   0   0   0   0   0   0   0   0   0   2   0   0   0   0   0   0   0   0   0   0   0   0   0   0   0   0   0   0   0   0   0   0   0   0   0   0   0   0   0   0   0   0   0   0   0   1 16 
   6   0   0   0   0   7   0   0   0   0   0   7   0   0   0   0   0   0   0   0   0   0   0   0  10   0   0   8   8   0   0   9   0   0   0   0   0   0   0   0   0   0   0   0   0   0   0   0   0   0   0   4 28 24 22 21 
   7   0   0   0   0   0   0   0   0   0   0  10   0   0   0   0   0   0   0   0   0   4   0   0   0   0   0   0   0   0   0   0   0   0   0   0   0   0   0   0   0   0   0   0   0   0   0   0   0   0   0   3 23 22 21 
   9   0   0   0   8   0  10   0   0   0   0   9   6   0   0   0   0   0   0   0   0   0   0   0   0   0   0   0   0   0   0   0   0   0   0   0   0   0   0   0   0   0   0   0   0   0   0   0   0   0   0   2 23 22 
   4   0   0   0   0   0   0   0   2   0   0   1   0   1   0   0   0   0   0   0   0   0   0   0   0   0   0   0   0   0   0   0   0   0   0   0   0   0   0   0   0   0   0   0   0   0   0   0   0   0   0   1 21 
   5   4   0   0   3   0   0   0   0   0   0   2   0   2   0   0   0   0   0   0   5   0   0   0   8   1   0   0   0   8   0   7   0   0   0   0   0   0   0   0   0   0   0   0   0   0   0   0   0   0   0   1 21 
   8   0   0   0   0   0   0   0   7   3   0   0   0   0   0   5   0   0   0   0   0   0   0   0   0   0   0   0   0   0   0   0   0   0   0   0   0   0   0   0   0   0   0   0   0   0   0   0   0   0   0   1 32
  10   7   0   0   0   0   2   5   0   8   5   0   0   0   0   0   0  10   0   0   1   0   0   0   0   0   0   0   0   1   0   0   0   0   0   0   0   0   0   0   0   0   0   0   0   0   0   0   0   0   0   1 32
   8   0   0   0   0   0   8   0   0   2   0   0   0   0   0   0   0   0   0   0   0   0   9   0   0   0   0   0   1   0   0   0   0   0   0   0   0   0   0   0   0   0   0   0   0   0   0   0   0   0   0   1 32
   1   0   0   0   0   0   0   8   0   0   0   0   0   0   0   0   0   0   0   0   0   3   0   0   0   3   0   0   0   0   0   0   0   0   0   0   0   0   0   0   0   0   0   0   0   0   0   0   0   0   0   1 32
   3   0   0   0   0   0   8   0   0   0   4   0   0   0   0   0   0   0   0   0   0   0   0   1   0   7   0   0   0   0   0   2   0   0   0   0   0   0   0   0   0   0   0   0   0   0   0   0   0   0   0   1 32
   4   0   0   0   0   4   0   0   8   9   0   0   0   0   0   0   0   0   0   0   0   0   5   0   0   0   0   0   5   0   3   0   0   0   0   0   0   0   0   0   0   0   0   0   0   0   0   0   0   0   0   1 32
   2   0   0   0   0   0   0   0   0  10   0   0   0   0   0   0   0   0   5   0   0   0   0   0   0   0   0   0   0   0   1   0   0   0   0   0   0   0   0   0   0   0   0   0   0   0   0   0   0   0   0   1 32
   2   0   0   0   0   0   0   0   0   0   0   0   0   1   9   0   0   0   0   0   0   0   0   0   0   0   0   0   4   0   0   0   0   0   0   0   0   0   0   0   0   0   0   0   0   0   0   0   0   0   0   1 32
  10   0   0   6   0   0   0   0   6   0   0   0   0   0   0   9   0   0   0   0   2   0   0   0   0   0   0   0   0   0   0   0   0   0   0   0   0   0   0   0   0   0   0   0   0   0   0   0   0   0   0   1 32
   5   0   0   9   9   0   0   0   0   0   0   0   0   0   7   0   0   0   0   0   0   0   0   0   0   0   0   0   0   0   0   0   0   0   0   0   0   0   0   0   0   0   0   0   0   0   0   0   0   0   0   1 32
   8   0   0   3   0   0   0   0   0   0   0   0   0   0   3   0   0   0   0   0   0   0   0   0   0   6   0   0   0   0   0   0   0   0   0   0   0   0   0   0   0   0   0   0   0   0   0   0   0   0   0   1 32
   0   0   0   0   0   0   0   0   0   0   0   0   0   0   0   0   0   0   0   0   0   0   0   0   0   0   0   0   0   0   0   0   0   0   0   0   0   0   0   0   0   0   0   0   0   0   0   0   0   0   0   0 
